# LAMMPS input file
# Star Polymer in solution

# ----- Variables -----

variable K equal 10.0
variable R0 equal 5.0
variable eps equal 0.5
variable sig equal 1.10

variable fconfig string lammps.test.conf
variable step equal 10000
variable dump_step equal 10000
variable dt equal 0.00015
variable runlength equal 5000000

# ----- Initialisation -----

units 			lj
boundary 		p p p
atom_style 		full
timestep 		${dt}

# ----- Atom Definition -----

read_data 		${fconfig}
special_bonds lj 1.0 1.0 1.0
dielectric 0.417

neigh_modify one 10000

# ----- Force Fields -----

bond_style  harmonic
bond_coeff	* 5.0 2.0

pair_style	hybrid/overlay lj/cut 1.12 yukawa 1.0 10.0

# lj/cut
pair_modify pair lj/cut shift yes
pair_coeff	* * lj/cut 1.0 1.0 1.12

# yukawa
pair_coeff * * yukawa 0.0
pair_coeff 1 1 yukawa 1.0
pair_coeff 1 2 yukawa -3.0
pair_coeff 2 2 yukawa 3.0

# ----- Thermostats -----

reset_timestep 	0
fix 			1 all nve
fix 			2 all langevin 1.2 1.2 1.0 6994

min_style               cg
minimize                1e-10 1e-10 500000 1000000
run                     50000
reset_timestep  0

# ----- Run Minimization -----

thermo 			${dump_step}
thermo_style 	custom step pe ke etotal temp

dump 			1 all custom ${dump_step} dump/dump.*.lammpstrj id type x y z q vx vy vz mol ix iy iz xu yu zu
run ${runlength}

# ----- Final Statement -----

# Simulation Finished

print 			"All Done"
